
List of user-set options:

                                    Name   Value                used
                           compl_inf_tol = 1                     yes
                         constr_viol_tol = 1                     yes
                            dual_inf_tol = 1000                  yes
                           linear_solver = ma97                  yes
                              ma86_small = 1e-30                  no
                                  ma86_u = 0.0001                 no
                              ma97_order = best                  yes
                              ma97_small = 1e-30                 yes
                            ma97_switch1 = at_start              yes
                            ma97_switch2 = od_hd_reuse           yes
                                  ma97_u = 1e-06                 yes
                               ma97_umax = 0.5                   yes
                                max_iter = 1000                  yes
                    max_refinement_steps = 20                    yes
                    min_refinement_steps = 5                     yes
                                 mu_init = 1e-06                 yes
           mu_superlinear_decrease_power = 1.25                  yes
                   nlp_scaling_min_value = 1e-08                 yes
                        option_file_name = Preset_Case_952_pf.opt  yes
                             output_file = ./tmp/Preset_Case_952_pf.output  yes
                      print_user_options = yes                   yes
        required_infeasibility_reduction = 1                      no
                                     tol = 1e-08                 yes
                   warm_start_bound_frac = 1e-20                 yes
                   warm_start_bound_push = 1e-20                 yes
                   warm_start_init_point = yes                   yes
              warm_start_mult_bound_push = 1e-20                 yes
                warm_start_mult_init_max = 1e+40                 yes
             warm_start_slack_bound_frac = 1e-20                 yes
             warm_start_slack_bound_push = 1e-20                 yes

******************************************************************************
This program contains Ipopt, a library for large-scale nonlinear optimization.
 Ipopt is released as open source code under the Eclipse Public License (EPL).
         For more information visit http://projects.coin-or.org/Ipopt
******************************************************************************

This is Ipopt version 3.12.10, running with linear solver ma97.

Number of nonzeros in equality constraint Jacobian...:   123442
Number of nonzeros in inequality constraint Jacobian.:      213
Number of nonzeros in Lagrangian Hessian.............:    49069

Total number of variables............................:    31591
                     variables with only lower bounds:    12912
                variables with lower and upper bounds:    15130
                     variables with only upper bounds:        0
Total number of equality constraints.................:    31483
Total number of inequality constraints...............:       25
        inequality constraints with only lower bounds:        4
   inequality constraints with lower and upper bounds:        0
        inequality constraints with only upper bounds:       21

iter    objective    inf_pr   inf_du lg(mu)  ||d||  lg(rg) alpha_du alpha_pr  ls
   0 -4.9747730e+00 4.03e-03 1.02e+00  -6.0 0.00e+00    -  0.00e+00 0.00e+00   0
   1 -4.9742270e+00 4.02e-03 1.02e+00  -6.0 4.09e+05    -  1.52e-04 3.62e-05h  6
   2 -4.9759313e+00 1.18e-02 2.44e+01  -6.0 1.10e+04    -  1.09e-01 1.98e-03h  1
   3 -4.9864072e+00 4.93e-01 2.48e+01  -6.0 1.22e+04    -  1.54e-02 1.22e-02f  1
   4 -5.1024910e+00 1.82e+01 2.69e+02  -6.0 7.59e+03    -  1.30e-02 1.38e-01f  1
   5 -5.1024930e+00 1.81e+01 2.68e+02  -6.0 5.11e+01  -4.0 2.40e-02 3.84e-03h  1
   6 -5.1051201e+00 8.58e+00 1.70e+02  -6.0 1.36e+01  -4.5 4.72e-01 5.26e-01h  1
   7 -5.3263548e+00 4.06e+01 1.59e+03  -6.0 3.89e+03    -  3.86e-02 3.52e-01h  1
   8 -5.3378116e+00 4.04e+01 1.56e+03  -6.0 8.74e+03    -  1.01e-01 2.13e-02h  1
   9 -5.3504804e+00 3.93e+01 1.52e+03  -6.0 7.20e+03    -  1.68e-01 2.82e-02h  1
iter    objective    inf_pr   inf_du lg(mu)  ||d||  lg(rg) alpha_du alpha_pr  ls
  10 -5.4095529e+00 3.46e+01 1.41e+03  -6.0 6.17e+03    -  3.44e-01 1.52e-01h  1
  11 -5.4076759e+00 3.87e+01 1.08e+03  -6.0 3.68e+03  -5.0 2.69e-06 2.39e-01h  2
  12 -5.4232805e+00 1.19e+00 2.62e+02  -6.0 3.84e+01  -5.4 1.27e-01 1.00e+00h  1
  13 -5.4443498e+00 4.86e-01 1.16e+02  -6.0 7.23e+01  -5.9 3.00e-01 1.00e+00h  1
  14 -5.4507880e+00 1.52e-01 1.65e+01  -6.0 9.02e+01  -6.4 7.12e-01 1.00e+00h  1
  15 -5.4635934e+00 4.40e-01 1.58e+01  -6.0 1.20e+02  -6.9 7.23e-02 1.00e+00h  1
  16 -5.4783480e+00 2.50e+00 8.75e+00  -6.0 3.14e+02  -7.3 4.65e-01 6.69e-01h  1
  17 -5.4747131e+00 1.29e+00 4.03e+03  -6.0 3.90e+02  -7.8 6.36e-01 9.07e-01h  1
  18 -5.4818303e+00 1.72e+00 7.90e+03  -6.0 4.34e+02  -7.4 9.65e-05 4.13e-01h  1
  19 -5.4956667e+00 2.91e+00 1.96e+03  -6.0 4.27e+02  -7.9 8.80e-01 1.00e+00h  1
iter    objective    inf_pr   inf_du lg(mu)  ||d||  lg(rg) alpha_du alpha_pr  ls
  20 -5.5019011e+00 2.01e+00 2.26e+03  -6.0 2.72e+02  -7.4 4.26e-01 3.57e-01h  1
  21 -5.5183108e+00 1.31e+00 4.43e+02  -6.0 2.14e+02  -7.0 1.00e+00 1.00e+00h  1
  22 -5.5254738e+00 1.07e+00 6.19e+04  -6.0 5.33e+02  -7.5 4.51e-01 2.49e-01h  1
  23 -5.5433760e+00 9.82e-01 4.08e+04  -6.0 2.18e+02  -7.1 8.09e-01 7.12e-01h  1
  24 -5.5433830e+00 9.82e-01 4.08e+04  -6.0 4.02e+02  -7.5 2.11e-04 1.76e-04h  1
  25 -5.5568533e+00 9.27e-01 3.38e+05  -6.0 2.48e+02  -7.1 2.38e-02 5.12e-01f  1
  26 -5.5635284e+00 9.23e-01 4.42e+05  -6.0 1.04e+03  -5.8 6.43e-03 4.44e-03h  1
  27 -5.5716137e+00 8.83e-01 1.39e+06  -6.0 3.63e+02  -6.3 1.18e-02 1.99e-01h  1
  28 -5.5676015e+00 6.84e-01 1.29e+06  -6.0 1.71e+02  -6.7 1.00e+00 3.19e-01h  1
  29 -5.5741785e+00 4.40e-01 5.92e+05  -6.0 1.56e+02  -7.2 5.00e-01 6.71e-01h  1
iter    objective    inf_pr   inf_du lg(mu)  ||d||  lg(rg) alpha_du alpha_pr  ls
  30 -5.5806250e+00 2.97e+00 8.92e+03  -6.0 4.41e+02  -7.7 3.19e-01 1.00e+00h  1
  31 -5.5920537e+00 2.13e+00 2.53e+03  -6.0 1.43e+02  -6.4 1.00e+00 2.85e-01h  1
  32 -5.5959283e+00 4.06e-01 3.86e+02  -6.0 1.13e+02  -6.8 1.00e+00 8.24e-01h  1
  33 -5.5940174e+00 3.94e-01 4.13e+00  -6.0 1.56e+02  -7.3 1.00e+00 1.00e+00h  1
  34 -5.5940426e+00 3.94e-01 3.29e+01  -6.0 5.11e+04    -  2.65e-02 9.31e-04h  3
  35 -5.5948770e+00 5.51e-01 3.67e+02  -6.0 3.52e+02  -7.8 5.21e-01 7.43e-01H  1
  36 -5.5948642e+00 5.50e-01 3.68e+02  -6.0 6.80e+03    -  4.38e-02 2.95e-03h  6
  37 -5.5959787e+00 5.75e-01 3.04e+02  -6.0 4.12e+02  -8.3 1.00e+00 2.67e-01h  1
  38 -5.5965133e+00 3.25e+00 2.87e+02  -6.0 6.26e+03    -  1.17e-01 6.36e-02h  1
  39 -5.5973530e+00 2.79e+00 2.59e+02  -6.0 6.88e+02  -8.8 7.66e-01 1.42e-01h  1
iter    objective    inf_pr   inf_du lg(mu)  ||d||  lg(rg) alpha_du alpha_pr  ls
  40 -5.5983044e+00 1.52e+01 2.29e+02  -6.0 6.37e+03    -  4.02e-02 1.25e-01h  1
  41 -5.5986315e+00 4.72e+01 2.13e+02  -6.0 2.26e+04    -  7.61e-02 6.94e-02f  1
  42 -5.5987541e+00 4.64e+01 2.04e+02  -6.0 4.43e+03    -  2.47e-01 1.75e-02h  1
  43 -5.6004954e+00 3.53e+01 1.58e+02  -6.0 1.25e+03    -  3.87e-02 2.41e-01h  1
  44 -5.6029003e+00 2.19e+01 1.03e+02  -6.0 1.87e+03    -  1.73e-02 3.80e-01h  1
  45 -5.6020821e+00 1.17e+01 7.61e+01  -6.0 1.04e+03    -  1.93e-03 4.68e-01h  1
  46 -5.6009465e+00 5.29e-01 7.35e+01  -6.0 1.12e+02  -6.5 3.03e-02 1.00e+00h  1
  47 -5.6010167e+00 1.23e+01 7.01e+01  -6.0 6.27e+04    -  2.81e-02 1.27e-02h  1
  48 -5.6018214e+00 9.86e+00 9.26e+01  -6.0 7.36e+02    -  2.15e-02 2.46e-01h  1
  49 -5.6029825e+00 1.48e+01 4.66e+01  -6.0 1.55e+03    -  4.88e-01 4.63e-01h  1
iter    objective    inf_pr   inf_du lg(mu)  ||d||  lg(rg) alpha_du alpha_pr  ls
  50 -5.6034935e+00 1.21e+01 3.77e+01  -6.0 5.60e+02    -  2.22e-01 1.87e-01h  1
  51 -5.6059772e+00 1.60e+00 1.97e+02  -6.0 6.23e+02    -  7.22e-01 1.00e+00h  1
  52 -5.6060477e+00 2.29e+00 1.83e+02  -6.0 5.24e+03    -  3.08e-01 6.64e-02h  1
  53 -5.6060593e+00 2.19e+00 1.39e+02  -6.0 7.14e+02    -  9.93e-01 1.91e-01h  1
  54 -5.6058699e+00 7.32e-01 1.73e+02  -6.0 3.86e+02    -  7.19e-02 1.00e+00h  1
  55 -5.6055655e+00 1.14e-03 1.62e+01  -6.0 1.01e+01  -7.0 2.00e-01 1.00e+00h  1
  56 -5.6056183e+00 8.87e-01 2.52e+01  -6.0 1.36e+03    -  6.06e-01 1.62e-01h  2
  57 -5.6057230e+00 9.34e+00 5.33e+01  -6.0 2.29e+03    -  1.00e+00 3.03e-01h  1
  58 -5.6057933e+00 2.65e+01 1.55e+01  -6.0 2.01e+03    -  5.94e-01 5.65e-01h  1
  59 -5.6057779e+00 3.05e+01 9.16e+00  -6.0 3.28e+03    -  2.58e-01 2.45e-01h  1
iter    objective    inf_pr   inf_du lg(mu)  ||d||  lg(rg) alpha_du alpha_pr  ls
  60 -5.6057697e+00 2.74e+01 6.60e+01  -6.0 5.37e+02    -  1.00e+00 1.01e-01h  1
  61 -5.6056679e+00 6.60e+00 4.68e+01  -6.0 6.71e+02    -  1.84e-01 1.00e+00h  1
  62 -5.6056566e+00 4.22e+00 1.55e+01  -6.0 6.54e+02    -  8.46e-01 5.00e-01h  2
  63 -5.6056649e+00 1.06e+00 4.88e-01  -6.0 2.56e+02    -  1.00e+00 1.00e+00h  1
  64 -5.6056576e+00 7.58e-02 3.68e-02  -6.0 6.56e+01    -  1.00e+00 1.00e+00h  1
  65 -5.6056581e+00 2.58e-03 1.02e-03  -6.0 1.19e+01    -  1.00e+00 1.00e+00h  1
  66 -5.6056581e+00 1.97e-09 1.32e-09  -6.0 1.31e-02    -  1.00e+00 1.00e+00h  1
  67 -5.6058738e+00 6.30e+00 1.12e+02  -7.5 8.00e+02    -  4.04e-01 7.90e-01f  1
  68 -5.6059013e+00 2.50e+00 8.13e+01  -7.5 3.47e+02    -  4.68e-01 8.19e-01h  1
  69 -5.6058681e+00 2.37e-04 4.88e-02  -7.5 2.08e+00  -7.5 1.00e+00 1.00e+00h  1
iter    objective    inf_pr   inf_du lg(mu)  ||d||  lg(rg) alpha_du alpha_pr  ls
  70 -5.6058745e+00 1.44e+00 2.44e+00  -7.5 2.04e+02    -  4.96e-01 1.00e+00h  1
  71 -5.6058716e+00 1.28e-02 4.48e-03  -7.5 2.69e+01    -  1.00e+00 1.00e+00h  1
  72 -5.6058716e+00 1.80e-05 5.07e-06  -7.5 9.70e-01    -  1.00e+00 1.00e+00h  1
  73 -5.6058716e+00 2.97e-10 5.92e-12  -7.5 3.50e-04    -  1.00e+00 1.00e+00h  1
  74 -5.6058734e+00 2.02e-02 9.15e-01  -9.0 3.99e+01    -  9.25e-01 8.25e-01h  1
  75 -5.6058736e+00 1.20e-03 3.89e-03  -9.0 7.99e+00    -  1.00e+00 1.00e+00h  1
  76 -5.6058735e+00 1.14e-08 3.84e-09  -9.0 2.35e-02    -  1.00e+00 1.00e+00h  1

Number of Iterations....: 76

                                   (scaled)                 (unscaled)
Objective...............:  -4.3795887088499699e+00   -5.6058735473279615e+00
Dual infeasibility......:   3.8431318636624693e-09    4.9192087854879612e-09
Constraint violation....:   9.3668591571552291e-09    1.1397787602618338e-08
Complementarity.........:   1.2320247715294747e-09    1.5769917075577276e-09
Overall NLP error.......:   9.3668591571552291e-09    1.1397787602618338e-08


Number of objective function evaluations             = 101
Number of objective gradient evaluations             = 77
Number of equality constraint evaluations            = 101
Number of inequality constraint evaluations          = 101
Number of equality constraint Jacobian evaluations   = 77
Number of inequality constraint Jacobian evaluations = 77
Number of Lagrangian Hessian evaluations             = 76
Total CPU secs in IPOPT (w/o function evaluations)   =    189.766
Total CPU secs in NLP function evaluations           =      2.960

EXIT: Optimal Solution Found.
